Code 1934
Dimension, Median
   128       16
 Facility, Client, Transportation Cost
     1        1           4
     1        2           1
     1        3           3
     1        5           4
     1        9           0
     1       17           3
     1       33           0
     1       65           0
     2        1           2
     2        2           2
     2        4           3
     2        6           2
     2       10           1
     2       18           3
     2       34           1
     2       66           0
     3        1           4
     3        3           3
     3        4           1
     3        7           4
     3       11           4
     3       19           2
     3       35           3
     3       67           1
     4        2           3
     4        3           3
     4        4           1
     4        8           2
     4       12           3
     4       20           1
     4       36           1
     4       68           4
     5        1           0
     5        5           4
     5        6           0
     5        7           3
     5       13           3
     5       21           3
     5       37           1
     5       69           4
     6        2           0
     6        5           4
     6        6           2
     6        8           0
     6       14           4
     6       22           0
     6       38           1
     6       70           4
     7        3           0
     7        5           4
     7        7           2
     7        8           3
     7       15           2
     7       23           0
     7       39           2
     7       71           2
     8        4           0
     8        6           4
     8        7           0
     8        8           0
     8       16           3
     8       24           3
     8       40           1
     8       72           4
     9        1           4
     9        9           4
     9       10           4
     9       11           4
     9       13           0
     9       25           2
     9       41           1
     9       73           4
    10        2           3
    10        9           0
    10       10           3
    10       12           2
    10       14           3
    10       26           2
    10       42           1
    10       74           4
    11        3           3
    11        9           0
    11       11           1
    11       12           0
    11       15           1
    11       27           3
    11       43           4
    11       75           3
    12        4           3
    12       10           2
    12       11           2
    12       12           1
    12       16           4
    12       28           2
    12       44           1
    12       76           4
    13        5           3
    13        9           4
    13       13           0
    13       14           0
    13       15           3
    13       29           4
    13       45           1
    13       77           1
    14        6           4
    14       10           4
    14       13           3
    14       14           0
    14       16           4
    14       30           2
    14       46           1
    14       78           2
    15        7           1
    15       11           4
    15       13           4
    15       15           0
    15       16           3
    15       31           2
    15       47           2
    15       79           3
    16        8           4
    16       12           1
    16       14           2
    16       15           0
    16       16           1
    16       32           0
    16       48           0
    16       80           3
    17        1           2
    17       17           1
    17       18           2
    17       19           4
    17       21           1
    17       25           4
    17       49           3
    17       81           1
    18        2           0
    18       17           3
    18       18           2
    18       20           4
    18       22           2
    18       26           2
    18       50           4
    18       82           1
    19        3           2
    19       17           3
    19       19           2
    19       20           1
    19       23           3
    19       27           4
    19       51           0
    19       83           3
    20        4           2
    20       18           1
    20       19           4
    20       20           4
    20       24           4
    20       28           2
    20       52           2
    20       84           0
    21        5           2
    21       17           0
    21       21           3
    21       22           1
    21       23           1
    21       29           0
    21       53           2
    21       85           0
    22        6           3
    22       18           0
    22       21           2
    22       22           0
    22       24           2
    22       30           2
    22       54           4
    22       86           4
    23        7           3
    23       19           3
    23       21           1
    23       23           4
    23       24           4
    23       31           2
    23       55           1
    23       87           2
    24        8           0
    24       20           3
    24       22           4
    24       23           3
    24       24           3
    24       32           0
    24       56           0
    24       88           4
    25        9           4
    25       17           3
    25       25           0
    25       26           1
    25       27           3
    25       29           0
    25       57           4
    25       89           4
    26       10           0
    26       18           0
    26       25           3
    26       26           2
    26       28           1
    26       30           0
    26       58           4
    26       90           2
    27       11           3
    27       19           0
    27       25           0
    27       27           3
    27       28           2
    27       31           4
    27       59           2
    27       91           1
    28       12           1
    28       20           4
    28       26           3
    28       27           0
    28       28           4
    28       32           3
    28       60           4
    28       92           3
    29       13           1
    29       21           2
    29       25           0
    29       29           4
    29       30           0
    29       31           4
    29       61           3
    29       93           4
    30       14           2
    30       22           3
    30       26           2
    30       29           3
    30       30           0
    30       32           4
    30       62           0
    30       94           3
    31       15           3
    31       23           1
    31       27           2
    31       29           0
    31       31           0
    31       32           1
    31       63           1
    31       95           0
    32       16           1
    32       24           2
    32       28           4
    32       30           3
    32       31           2
    32       32           4
    32       64           0
    32       96           4
    33        1           4
    33       33           3
    33       34           3
    33       35           4
    33       37           1
    33       41           1
    33       49           3
    33       97           3
    34        2           1
    34       33           1
    34       34           4
    34       36           3
    34       38           4
    34       42           4
    34       50           2
    34       98           1
    35        3           2
    35       33           0
    35       35           0
    35       36           2
    35       39           4
    35       43           3
    35       51           4
    35       99           0
    36        4           0
    36       34           4
    36       35           4
    36       36           1
    36       40           4
    36       44           3
    36       52           0
    36      100           3
    37        5           3
    37       33           0
    37       37           3
    37       38           0
    37       39           4
    37       45           4
    37       53           0
    37      101           3
    38        6           2
    38       34           3
    38       37           0
    38       38           2
    38       40           2
    38       46           2
    38       54           0
    38      102           3
    39        7           0
    39       35           4
    39       37           4
    39       39           2
    39       40           3
    39       47           0
    39       55           2
    39      103           1
    40        8           2
    40       36           0
    40       38           3
    40       39           3
    40       40           1
    40       48           3
    40       56           4
    40      104           2
    41        9           1
    41       33           2
    41       41           4
    41       42           3
    41       43           0
    41       45           2
    41       57           2
    41      105           0
    42       10           2
    42       34           2
    42       41           2
    42       42           1
    42       44           3
    42       46           3
    42       58           4
    42      106           2
    43       11           0
    43       35           2
    43       41           2
    43       43           2
    43       44           3
    43       47           3
    43       59           1
    43      107           1
    44       12           3
    44       36           0
    44       42           0
    44       43           3
    44       44           4
    44       48           2
    44       60           4
    44      108           2
    45       13           3
    45       37           1
    45       41           0
    45       45           0
    45       46           1
    45       47           0
    45       61           0
    45      109           3
    46       14           1
    46       38           1
    46       42           0
    46       45           2
    46       46           0
    46       48           0
    46       62           2
    46      110           4
    47       15           2
    47       39           3
    47       43           3
    47       45           3
    47       47           3
    47       48           2
    47       63           3
    47      111           0
    48       16           1
    48       40           0
    48       44           0
    48       46           3
    48       47           4
    48       48           0
    48       64           4
    48      112           2
    49       17           3
    49       33           3
    49       49           1
    49       50           0
    49       51           4
    49       53           2
    49       57           3
    49      113           1
    50       18           3
    50       34           1
    50       49           4
    50       50           2
    50       52           0
    50       54           3
    50       58           4
    50      114           1
    51       19           3
    51       35           1
    51       49           1
    51       51           2
    51       52           1
    51       55           3
    51       59           0
    51      115           1
    52       20           0
    52       36           3
    52       50           0
    52       51           4
    52       52           4
    52       56           1
    52       60           0
    52      116           3
    53       21           4
    53       37           2
    53       49           0
    53       53           4
    53       54           3
    53       55           2
    53       61           0
    53      117           1
    54       22           1
    54       38           1
    54       50           3
    54       53           4
    54       54           1
    54       56           4
    54       62           3
    54      118           2
    55       23           0
    55       39           2
    55       51           3
    55       53           2
    55       55           4
    55       56           1
    55       63           4
    55      119           2
    56       24           0
    56       40           4
    56       52           2
    56       54           4
    56       55           3
    56       56           4
    56       64           4
    56      120           3
    57       25           0
    57       41           4
    57       49           0
    57       57           3
    57       58           2
    57       59           0
    57       61           4
    57      121           1
    58       26           2
    58       42           0
    58       50           4
    58       57           2
    58       58           3
    58       60           0
    58       62           1
    58      122           4
    59       27           3
    59       43           2
    59       51           4
    59       57           3
    59       59           1
    59       60           2
    59       63           3
    59      123           4
    60       28           3
    60       44           3
    60       52           3
    60       58           0
    60       59           2
    60       60           2
    60       64           3
    60      124           1
    61       29           3
    61       45           4
    61       53           4
    61       57           3
    61       61           1
    61       62           0
    61       63           4
    61      125           1
    62       30           3
    62       46           2
    62       54           4
    62       58           0
    62       61           0
    62       62           3
    62       64           1
    62      126           4
    63       31           1
    63       47           0
    63       55           4
    63       59           2
    63       61           1
    63       63           2
    63       64           0
    63      127           4
    64       32           2
    64       48           2
    64       56           3
    64       60           0
    64       62           1
    64       63           1
    64       64           2
    64      128           0
    65        1           2
    65       65           0
    65       66           2
    65       67           1
    65       69           3
    65       73           1
    65       81           2
    65       97           0
    66        2           2
    66       65           1
    66       66           0
    66       68           4
    66       70           1
    66       74           3
    66       82           1
    66       98           4
    67        3           2
    67       65           0
    67       67           4
    67       68           1
    67       71           2
    67       75           2
    67       83           4
    67       99           3
    68        4           1
    68       66           4
    68       67           1
    68       68           0
    68       72           2
    68       76           4
    68       84           2
    68      100           3
    69        5           3
    69       65           1
    69       69           4
    69       70           0
    69       71           4
    69       77           4
    69       85           4
    69      101           2
    70        6           4
    70       66           4
    70       69           2
    70       70           4
    70       72           1
    70       78           4
    70       86           4
    70      102           4
    71        7           4
    71       67           3
    71       69           2
    71       71           4
    71       72           3
    71       79           2
    71       87           4
    71      103           2
    72        8           3
    72       68           0
    72       70           1
    72       71           3
    72       72           4
    72       80           0
    72       88           3
    72      104           0
    73        9           1
    73       65           2
    73       73           0
    73       74           3
    73       75           4
    73       77           3
    73       89           0
    73      105           3
    74       10           1
    74       66           4
    74       73           4
    74       74           3
    74       76           0
    74       78           1
    74       90           0
    74      106           0
    75       11           3
    75       67           1
    75       73           0
    75       75           0
    75       76           4
    75       79           3
    75       91           4
    75      107           4
    76       12           0
    76       68           4
    76       74           1
    76       75           1
    76       76           4
    76       80           1
    76       92           4
    76      108           4
    77       13           1
    77       69           4
    77       73           3
    77       77           1
    77       78           1
    77       79           2
    77       93           1
    77      109           1
    78       14           4
    78       70           0
    78       74           0
    78       77           1
    78       78           2
    78       80           3
    78       94           3
    78      110           2
    79       15           2
    79       71           3
    79       75           4
    79       77           3
    79       79           3
    79       80           2
    79       95           4
    79      111           1
    80       16           0
    80       72           0
    80       76           2
    80       78           1
    80       79           4
    80       80           3
    80       96           0
    80      112           4
    81       17           2
    81       65           2
    81       81           1
    81       82           2
    81       83           2
    81       85           2
    81       89           2
    81      113           2
    82       18           0
    82       66           2
    82       81           3
    82       82           3
    82       84           4
    82       86           0
    82       90           2
    82      114           3
    83       19           2
    83       67           3
    83       81           2
    83       83           3
    83       84           4
    83       87           0
    83       91           3
    83      115           0
    84       20           4
    84       68           0
    84       82           1
    84       83           3
    84       84           3
    84       88           4
    84       92           4
    84      116           3
    85       21           4
    85       69           3
    85       81           1
    85       85           3
    85       86           3
    85       87           3
    85       93           3
    85      117           4
    86       22           3
    86       70           1
    86       82           4
    86       85           2
    86       86           0
    86       88           1
    86       94           3
    86      118           3
    87       23           1
    87       71           3
    87       83           4
    87       85           3
    87       87           0
    87       88           2
    87       95           3
    87      119           0
    88       24           4
    88       72           1
    88       84           3
    88       86           1
    88       87           1
    88       88           1
    88       96           4
    88      120           3
    89       25           4
    89       73           3
    89       81           3
    89       89           1
    89       90           2
    89       91           4
    89       93           1
    89      121           4
    90       26           0
    90       74           3
    90       82           0
    90       89           2
    90       90           4
    90       92           2
    90       94           1
    90      122           0
    91       27           4
    91       75           0
    91       83           2
    91       89           2
    91       91           1
    91       92           1
    91       95           0
    91      123           3
    92       28           3
    92       76           1
    92       84           2
    92       90           4
    92       91           4
    92       92           0
    92       96           4
    92      124           0
    93       29           2
    93       77           0
    93       85           3
    93       89           0
    93       93           2
    93       94           1
    93       95           3
    93      125           0
    94       30           1
    94       78           4
    94       86           0
    94       90           3
    94       93           4
    94       94           1
    94       96           2
    94      126           1
    95       31           4
    95       79           3
    95       87           0
    95       91           0
    95       93           1
    95       95           3
    95       96           4
    95      127           2
    96       32           1
    96       80           1
    96       88           2
    96       92           0
    96       94           1
    96       95           0
    96       96           0
    96      128           1
    97       33           2
    97       65           1
    97       97           0
    97       98           2
    97       99           3
    97      101           4
    97      105           3
    97      113           0
    98       34           1
    98       66           2
    98       97           4
    98       98           3
    98      100           1
    98      102           0
    98      106           2
    98      114           4
    99       35           4
    99       67           2
    99       97           2
    99       99           4
    99      100           3
    99      103           3
    99      107           3
    99      115           2
   100       36           4
   100       68           3
   100       98           0
   100       99           0
   100      100           3
   100      104           3
   100      108           4
   100      116           0
   101       37           2
   101       69           2
   101       97           1
   101      101           2
   101      102           1
   101      103           3
   101      109           3
   101      117           4
   102       38           4
   102       70           3
   102       98           1
   102      101           4
   102      102           4
   102      104           1
   102      110           4
   102      118           4
   103       39           3
   103       71           3
   103       99           0
   103      101           2
   103      103           2
   103      104           4
   103      111           3
   103      119           2
   104       40           4
   104       72           3
   104      100           3
   104      102           4
   104      103           1
   104      104           1
   104      112           3
   104      120           0
   105       41           0
   105       73           2
   105       97           0
   105      105           2
   105      106           2
   105      107           3
   105      109           3
   105      121           3
   106       42           1
   106       74           1
   106       98           2
   106      105           4
   106      106           0
   106      108           2
   106      110           3
   106      122           3
   107       43           3
   107       75           4
   107       99           3
   107      105           0
   107      107           0
   107      108           3
   107      111           2
   107      123           4
   108       44           1
   108       76           1
   108      100           1
   108      106           4
   108      107           1
   108      108           2
   108      112           4
   108      124           1
   109       45           3
   109       77           4
   109      101           3
   109      105           4
   109      109           4
   109      110           0
   109      111           4
   109      125           2
   110       46           4
   110       78           4
   110      102           1
   110      106           0
   110      109           2
   110      110           1
   110      112           3
   110      126           2
   111       47           2
   111       79           0
   111      103           0
   111      107           3
   111      109           3
   111      111           0
   111      112           3
   111      127           1
   112       48           1
   112       80           2
   112      104           1
   112      108           0
   112      110           3
   112      111           4
   112      112           0
   112      128           2
   113       49           4
   113       81           2
   113       97           2
   113      113           2
   113      114           1
   113      115           0
   113      117           4
   113      121           2
   114       50           0
   114       82           1
   114       98           1
   114      113           0
   114      114           4
   114      116           0
   114      118           2
   114      122           0
   115       51           4
   115       83           0
   115       99           3
   115      113           1
   115      115           0
   115      116           3
   115      119           4
   115      123           1
   116       52           4
   116       84           3
   116      100           1
   116      114           2
   116      115           4
   116      116           4
   116      120           3
   116      124           2
   117       53           2
   117       85           1
   117      101           0
   117      113           4
   117      117           3
   117      118           2
   117      119           4
   117      125           0
   118       54           0
   118       86           2
   118      102           4
   118      114           1
   118      117           0
   118      118           3
   118      120           2
   118      126           1
   119       55           3
   119       87           2
   119      103           1
   119      115           2
   119      117           4
   119      119           4
   119      120           4
   119      127           3
   120       56           4
   120       88           3
   120      104           4
   120      116           3
   120      118           1
   120      119           0
   120      120           3
   120      128           1
   121       57           1
   121       89           1
   121      105           2
   121      113           0
   121      121           4
   121      122           3
   121      123           2
   121      125           2
   122       58           0
   122       90           2
   122      106           4
   122      114           0
   122      121           1
   122      122           1
   122      124           2
   122      126           4
   123       59           4
   123       91           4
   123      107           2
   123      115           3
   123      121           0
   123      123           0
   123      124           2
   123      127           0
   124       60           2
   124       92           0
   124      108           3
   124      116           1
   124      122           0
   124      123           0
   124      124           3
   124      128           0
   125       61           1
   125       93           0
   125      109           1
   125      117           0
   125      121           3
   125      125           4
   125      126           2
   125      127           3
   126       62           2
   126       94           0
   126      110           3
   126      118           0
   126      122           3
   126      125           4
   126      126           2
   126      128           2
   127       63           2
   127       95           4
   127      111           3
   127      119           1
   127      123           4
   127      125           1
   127      127           1
   127      128           0
   128       64           2
   128       96           4
   128      112           4
   128      120           1
   128      124           3
   128      126           3
   128      127           2
   128      128           3
